0
Node Left Objective IInf Best_Integer Best_Bound ItCnt Gap
0 0 0.0000 27 0.0000 11
0+ 0 nan nan 2429.3757 0.0000 nan 100.00%
0+ 0 nan nan 1026.5391 0.0000 nan 100.00%
0 0 0.0000 27 1026.5391 Impl Bds:27 78
0 0 0.0000 27 1026.5391 Impl Bds:2 82
0+ 0 nan nan 756.5897 0.0000 nan 100.00%
0 2 0.0000 27 756.5897 0.0000 82 100.00%
CPXPARAM_MIP_Cuts_Implied 27
1
Node Left Objective IInf Best_Integer Best_Bound ItCnt Gap
0 0 0.0000 14 0.0000 13
0+ 0 nan nan 3272.4485 0.0000 nan 100.00%
0+ 0 nan nan 430.4440 0.0000 nan 100.00%
0 0 0.0000 13 430.4440 Impl Bds:13 63
0+ 0 nan nan 404.6196 0.0000 nan 100.00%
0 0 0.0000 15 404.6196 Impl Bds:6 79
0+ 0 nan nan 279.1033 0.0000 nan 100.00%
0 0 0.0000 15 279.1033 Impl Bds:1 81
0+ 0 nan nan 228.9896 0.0000 nan 100.00%
0 2 0.0000 15 228.9896 0.0000 81 100.00%
CPXPARAM_MIP_Cuts_Implied 15
2
Node Left Objective IInf Best_Integer Best_Bound ItCnt Gap
0 0 0.0000 28 0.0000 12
0+ 0 nan nan 3959.4042 0.0000 nan 100.00%
0+ 0 nan nan 1173.5814 0.0000 nan 100.00%
0 0 0.0000 28 1173.5814 Impl Bds:27 141
0 0 0.0000 28 1173.5814 Impl Bds:6 159
0+ 0 nan nan 856.5165 0.0000 nan 100.00%
0 2 0.0000 28 856.5165 0.0000 159 100.00%
CPXPARAM_MIP_Cuts_Implied 29
3
Node Left Objective IInf Best_Integer Best_Bound ItCnt Gap
0 0 0.0000 14 0.0000 13
0+ 0 nan nan 3005.4159 0.0000 nan 100.00%
0+ 0 nan nan 395.3366 0.0000 nan 100.00%
0 0 0.0000 12 395.3366 Impl Bds:13 89
0+ 0 nan nan 385.2649 0.0000 nan 100.00%
0 0 0.0000 13 385.2649 Impl Bds:5 102
0+ 0 nan nan 358.6133 0.0000 nan 100.00%
0 0 0.0000 14 358.6133 Impl Bds:2 109
0+ 0 nan nan 286.8046 0.0000 nan 100.00%
0 2 0.0000 14 286.8046 0.0000 109 100.00%
CPXPARAM_MIP_Cuts_Implied 13
4
Node Left Objective IInf Best_Integer Best_Bound ItCnt Gap
0 0 -0.0000 17 -0.0000 12
0+ 0 nan nan 3261.8186 -0.0000 nan 100.00%
0+ 0 nan nan 766.7996 -0.0000 nan 100.00%
0 0 -0.0000 16 766.7996 Impl Bds:17 46
0+ 0 nan nan 275.3348 -0.0000 nan 100.00%
0 2 -0.0000 16 275.3348 -0.0000 46 100.00%
CPXPARAM_MIP_Cuts_Implied 17
5
Node Left Objective IInf Best_Integer Best_Bound ItCnt Gap
0 0 0.0000 14 0.0000 13
0+ 0 nan nan 2397.4108 0.0000 nan 100.00%
0+ 0 nan nan 409.3649 0.0000 nan 100.00%
0 0 0.0000 15 409.3649 Impl Bds:14 45
0+ 0 nan nan 149.4203 0.0000 nan 100.00%
0 0 0.0000 15 149.4203 Impl Bds:1 47
0 2 0.0000 15 149.4203 0.0000 47 100.00%
CPXPARAM_MIP_Cuts_Implied 15
6
Node Left Objective IInf Best_Integer Best_Bound ItCnt Gap
0 0 -0.0000 27 -0.0000 13
0+ 0 nan nan 5035.3548 -0.0000 nan 100.00%
0+ 0 nan nan 1010.8538 -0.0000 nan 100.00%
0 0 -0.0000 26 1010.8538 Impl Bds:27 79
0+ 0 nan nan 302.0857 -0.0000 nan 100.00%
0 2 -0.0000 26 302.0857 -0.0000 79 100.00%
CPXPARAM_MIP_Cuts_Implied 26
7
Node Left Objective IInf Best_Integer Best_Bound ItCnt Gap
0 0 -0.0000 28 -0.0000 12
0+ 0 nan nan 5418.5961 -0.0000 nan 100.00%
0+ 0 nan nan 832.2752 -0.0000 nan 100.00%
0 0 -0.0000 27 832.2752 Impl Bds:28 77
0+ 0 nan nan 223.3156 -0.0000 nan 100.00%
0 2 -0.0000 27 223.3156 -0.0000 77 100.00%
CPXPARAM_MIP_Cuts_Implied 27
8
Node Left Objective IInf Best_Integer Best_Bound ItCnt Gap
0 0 0.0000 28 0.0000 12
0+ 0 nan nan 4409.9311 0.0000 nan 100.00%
0+ 0 nan nan 1278.9463 0.0000 nan 100.00%
0 0 0.0000 28 1278.9463 Impl Bds:27 73
0 0 0.0000 28 1278.9463 Impl Bds:5 83
0+ 0 nan nan 1059.0962 0.0000 nan 100.00%
0 2 0.0000 28 1059.0962 0.0000 83 100.00%
CPXPARAM_MIP_Cuts_Implied 29
9
Node Left Objective IInf Best_Integer Best_Bound ItCnt Gap
0 0 0.0000 24 0.0000 12
0+ 0 nan nan 2620.5706 0.0000 nan 100.00%
0+ 0 nan nan 838.6332 0.0000 nan 100.00%
0 0 0.0000 24 838.6332 Impl Bds:17 46
0+ 0 nan nan 386.2118 0.0000 nan 100.00%
0 2 0.0000 24 386.2118 0.0000 46 100.00%
CPXPARAM_MIP_Cuts_Implied 17
10
Node Left Objective IInf Best_Integer Best_Bound ItCnt Gap
0 0 -0.0000 29 -0.0000 12
0+ 0 nan nan 5078.2432 -0.0000 nan 100.00%
0+ 0 nan nan 1205.4897 -0.0000 nan 100.00%
0 0 -0.0000 29 1205.4897 Impl Bds:28 85
0 0 -0.0000 29 1205.4897 Impl Bds:4 94
0 2 -0.0000 29 1205.4897 -0.0000 94 100.00%
CPXPARAM_MIP_Cuts_Implied 30
11
Node Left Objective IInf Best_Integer Best_Bound ItCnt Gap
0 0 0.0000 28 0.0000 12
0+ 0 nan nan 5061.8884 0.0000 nan 100.00%
0+ 0 nan nan 995.6573 0.0000 nan 100.00%
0 0 0.0000 28 995.6573 Impl Bds:27 80
0+ 0 nan nan 914.7607 0.0000 nan 100.00%
0 0 0.0000 28 914.7607 Impl Bds:4 90
0+ 0 nan nan 549.6483 0.0000 nan 100.00%
0 2 0.0000 28 549.6483 0.0000 90 100.00%
CPXPARAM_MIP_Cuts_Implied 29
12
Node Left Objective IInf Best_Integer Best_Bound ItCnt Gap
0 0 -0.0000 29 -0.0000 12
0+ 0 nan nan 3347.8338 -0.0000 nan 100.00%
0+ 0 nan nan 1103.5671 -0.0000 nan 100.00%
0 0 -0.0000 29 1103.5671 Impl Bds:28 103
0 0 -0.0000 29 1103.5671 Impl Bds:2 107
0+ 0 nan nan 1067.6527 -0.0000 nan 100.00%
0 2 -0.0000 29 1067.6527 -0.0000 107 100.00%
CPXPARAM_MIP_Cuts_Implied 30
13
Node Left Objective IInf Best_Integer Best_Bound ItCnt Gap
0 0 -0.0000 29 -0.0000 12
0+ 0 nan nan 2891.3767 -0.0000 nan 100.00%
0+ 0 nan nan 885.9934 -0.0000 nan 100.00%
0 0 -0.0000 29 885.9934 Impl Bds:26 74
0+ 0 nan nan 834.6631 -0.0000 nan 100.00%
0+ 0 nan nan 263.8090 -0.0000 nan 100.00%
0 2 -0.0000 29 263.8090 -0.0000 74 100.00%
CPXPARAM_MIP_Cuts_Implied 26
14
Node Left Objective IInf Best_Integer Best_Bound ItCnt Gap
0 0 -0.0000 29 -0.0000 12
0+ 0 nan nan 2605.7473 -0.0000 nan 100.00%
0+ 0 nan nan 1103.5570 -0.0000 nan 100.00%
0 0 -0.0000 29 1103.5570 Impl Bds:27 100
0 0 -0.0000 29 1103.5570 Impl Bds:2 113
0 2 -0.0000 29 1103.5570 -0.0000 113 100.00%
CPXPARAM_MIP_Cuts_Implied 27
15
Node Left Objective IInf Best_Integer Best_Bound ItCnt Gap
0 0 -0.0000 29 -0.0000 13
0+ 0 nan nan 2702.1327 -0.0000 nan 100.00%
0+ 0 nan nan 904.1924 -0.0000 nan 100.00%
0 0 -0.0000 29 904.1924 Impl Bds:22 61
0 0 -0.0000 29 904.1924 Impl Bds:1 63
0+ 0 nan nan 478.7292 -0.0000 nan 100.00%
0+ 0 nan nan 198.4047 -0.0000 nan 100.00%
0 2 -0.0000 29 198.4047 -0.0000 63 100.00%
CPXPARAM_MIP_Cuts_Implied 22
16
Node Left Objective IInf Best_Integer Best_Bound ItCnt Gap
0 0 0.0000 29 0.0000 11
0+ 0 nan nan 3576.8670 0.0000 nan 100.00%
0+ 0 nan nan 1089.1526 0.0000 nan 100.00%
0 0 0.0000 29 1089.1526 Impl Bds:28 115
0 0 -0.0000 29 1089.1526 Impl Bds:7 130
0+ 0 nan nan 968.6870 0.0000 nan 100.00%
0 2 -0.0000 29 968.6870 0.0000 130 100.00%
CPXPARAM_MIP_Cuts_Implied 30
17
Node Left Objective IInf Best_Integer Best_Bound ItCnt Gap
0 0 0.0000 29 0.0000 12
0+ 0 nan nan 2805.8693 0.0000 nan 100.00%
0+ 0 nan nan 1072.7036 0.0000 nan 100.00%
0 0 0.0000 29 1072.7036 Impl Bds:28 79
0+ 0 nan nan 471.4607 0.0000 nan 100.00%
0+ 0 nan nan 393.1419 0.0000 nan 100.00%
0 2 0.0000 29 393.1419 0.0000 79 100.00%
CPXPARAM_MIP_Cuts_Implied 28
18
Node Left Objective IInf Best_Integer Best_Bound ItCnt Gap
0 0 0.0000 29 0.0000 12
0+ 0 nan nan 3636.3062 0.0000 nan 100.00%
0+ 0 nan nan 1085.0621 0.0000 nan 100.00%
0 0 0.0000 29 1085.0621 Impl Bds:28 115
0+ 0 nan nan 1046.8190 0.0000 nan 100.00%
0 0 0.0000 29 1046.8190 Impl Bds:6 127
0 2 0.0000 29 1046.8190 0.0000 127 100.00%
CPXPARAM_MIP_Cuts_Implied 30
19
Node Left Objective IInf Best_Integer Best_Bound ItCnt Gap
0 0 -0.0000 29 -0.0000 12
0+ 0 nan nan 2751.8816 -0.0000 nan 100.00%
0+ 0 nan nan 957.8379 -0.0000 nan 100.00%
0 0 -0.0000 29 957.8379 Impl Bds:20 54
0+ 0 nan nan 567.5334 -0.0000 nan 100.00%
0+ 0 nan nan 316.2047 -0.0000 nan 100.00%
0 2 -0.0000 29 316.2047 -0.0000 54 100.00%
CPXPARAM_MIP_Cuts_Implied 20
20
Node Left Objective IInf Best_Integer Best_Bound ItCnt Gap
0 0 0.0000 28 0.0000 13
0+ 0 nan nan 4442.0625 0.0000 nan 100.00%
0+ 0 nan nan 1314.2586 0.0000 nan 100.00%
0 0 0.0000 28 1314.2586 Impl Bds:28 91
0+ 0 nan nan 712.2527 0.0000 nan 100.00%
0+ 0 nan nan 332.2684 0.0000 nan 100.00%
0 2 0.0000 28 332.2684 0.0000 91 100.00%
CPXPARAM_MIP_Cuts_Implied 28
21
Node Left Objective IInf Best_Integer Best_Bound ItCnt Gap
0 0 0.0000 29 0.0000 13
0+ 0 nan nan 4519.4390 0.0000 nan 100.00%
0+ 0 nan nan 606.4076 0.0000 nan 100.00%
0 0 0.0000 28 606.4076 Impl Bds:28 75
0+ 0 nan nan 381.8798 0.0000 nan 100.00%
0+ 0 nan nan 211.5816 0.0000 nan 100.00%
0 2 0.0000 28 211.5816 0.0000 75 100.00%
CPXPARAM_MIP_Cuts_Implied 28
22
Node Left Objective IInf Best_Integer Best_Bound ItCnt Gap
0 0 -0.0000 19 -0.0000 15
0+ 0 nan nan 2758.5282 -0.0000 nan 100.00%
0+ 0 nan nan 1061.9824 -0.0000 nan 100.00%
0 0 -0.0000 18 1061.9824 Impl Bds:19 53
0+ 0 nan nan 29.9325 -0.0000 nan 100.00%
0+ 0 nan nan 2.4199 -0.0000 nan 100.00%
0 0 -1.00000e+75 0 2.4199 -0.0000 53 100.00%
Repeating presolve.
Tried aggregator 1 time.
MIQP Presolve eliminated 76 rows and 61 columns.
MIQP Presolve nan nan modified 1 nan coefficients.
Reduced MIQP has 38 rows, 39 columns, and
Reduced MIQP has 16 binaries, 0 generals, 0
Reduced MIQP objective Q matrix has 9 nonzeros.
Presolve time = 0.00 sec. (0.12 ticks)
Probing time = 0.00 sec. (0.01 ticks)
Tried aggregator 1 time.
Reduced MIQP has 38 rows, 39 columns, and
Reduced MIQP has 16 binaries, 0 generals, 0
Reduced MIQP objective Q matrix has 9 nonzeros.
Presolve time = 0.00 sec. (0.05 ticks)
Represolve time = 0.00 sec. (0.29 ticks)
Probing time = 0.00 sec. (0.01 ticks)
MIP emphasis:balance nan nan optimality and nan feasibility.
MIP search method:traditional branch-and-cut.
Parallel mode:none, nan nan using 1 nan thread.
Warning: Barrier optimality criterion affected by large objective
Root relaxation solution time = 0.00 sec. (0.72
0+ 0 nan nan 2.4199 -0.0000 nan 100.00%
0 0 -0.0000 4 2.4199 -0.0000 68 100.00%
0 2 -0.0000 4 2.4199 -0.0000 68 100.00%
CPXPARAM_MIP_Cuts_Implied 3
23
Node Left Objective IInf Best_Integer Best_Bound ItCnt Gap
0 0 0.0000 25 0.0000 15
0+ 0 nan nan 3761.2048 0.0000 nan 100.00%
0+ 0 nan nan 633.3686 0.0000 nan 100.00%
0 0 0.0000 23 633.3686 Impl Bds:25 155
0+ 0 nan nan 343.3204 0.0000 nan 100.00%
0+ 0 nan nan 314.5552 0.0000 nan 100.00%
0 2 0.0000 23 314.5552 0.0000 155 100.00%
CPXPARAM_MIP_Cuts_Implied 21
24
Node Left Objective IInf Best_Integer Best_Bound ItCnt Gap
0 0 0.0000 29 0.0000 12
0+ 0 nan nan 3612.5558 0.0000 nan 100.00%
0+ 0 nan nan 938.7500 0.0000 nan 100.00%
0 0 0.0000 29 938.7500 Impl Bds:28 99
0+ 0 nan nan 804.8402 0.0000 nan 100.00%
0+ 0 nan nan 753.6466 0.0000 nan 100.00%
0 2 0.0000 29 753.6466 0.0000 99 100.00%
CPXPARAM_MIP_Cuts_Implied 25
25
Node Left Objective IInf Best_Integer Best_Bound ItCnt Gap
0 0 0.0000 29 0.0000 13
0+ 0 nan nan 3587.6238 0.0000 nan 100.00%
0+ 0 nan nan 699.1337 0.0000 nan 100.00%
0 0 0.0000 29 699.1337 Impl Bds:28 86
0+ 0 nan nan 401.9287 0.0000 nan 100.00%
0+ 0 nan nan 341.9499 0.0000 nan 100.00%
0 2 0.0000 29 341.9499 0.0000 86 100.00%
CPXPARAM_MIP_Cuts_Implied 25
26
Node Left Objective IInf Best_Integer Best_Bound ItCnt Gap
0 0 0.0000 29 0.0000 13
0+ 0 nan nan 3532.1610 0.0000 nan 100.00%
0+ 0 nan nan 938.1434 0.0000 nan 100.00%
0 0 0.0000 29 938.1434 Impl Bds:28 93
0+ 0 nan nan 706.0396 0.0000 nan 100.00%
0 0 0.0000 29 706.0396 Impl Bds:3 99
0+ 0 nan nan 524.1438 0.0000 nan 100.00%
0+ 0 nan nan 172.6138 0.0000 nan 100.00%
0 2 0.0000 29 172.6138 0.0000 99 100.00%
CPXPARAM_MIP_Cuts_Implied 24
27
Node Left Objective IInf Best_Integer Best_Bound ItCnt Gap
0 0 0.0000 29 0.0000 13
0+ 0 nan nan 2978.7946 0.0000 nan 100.00%
0+ 0 nan nan 695.3404 0.0000 nan 100.00%
0 0 0.0000 29 695.3404 Impl Bds:25 68
0+ 0 nan nan 601.0885 0.0000 nan 100.00%
0 0 0.0000 29 601.0885 Impl Bds:1 70
0+ 0 nan nan 191.4550 0.0000 nan 100.00%
0+ 0 nan nan 28.0503 0.0000 nan 100.00%
0 2 0.0000 29 28.0503 0.0000 70 100.00%
CPXPARAM_MIP_Cuts_Implied 24
28
Node Left Objective IInf Best_Integer Best_Bound ItCnt Gap
0 0 0.0000 30 0.0000 11
0+ 0 nan nan 5836.8915 0.0000 nan 100.00%
0+ 0 nan nan 1316.0757 0.0000 nan 100.00%
0 0 0.0000 29 1316.0757 Impl Bds:30 98
0+ 0 nan nan 549.3709 0.0000 nan 100.00%
0 2 0.0000 29 549.3709 0.0000 98 100.00%
CPXPARAM_MIP_Cuts_Implied 28
29
Node Left Objective IInf Best_Integer Best_Bound ItCnt Gap
0 0 0.0000 21 0.0000 12
0+ 0 nan nan 2949.2601 0.0000 nan 100.00%
0+ 0 nan nan 927.5887 0.0000 nan 100.00%
0 0 0.0000 21 927.5887 Impl Bds:13 38
0+ 0 nan nan 308.9130 0.0000 nan 100.00%
0+ 0 nan nan 115.6174 0.0000 nan 100.00%
0 2 0.0000 21 115.6174 0.0000 38 100.00%
CPXPARAM_MIP_Cuts_Implied 13
30
Node Left Objective IInf Best_Integer Best_Bound ItCnt Gap
0 0 -0.0000 27 -0.0000 13
0+ 0 nan nan 3890.8939 -0.0000 nan 100.00%
0+ 0 nan nan 1288.9355 -0.0000 nan 100.00%
0 0 -0.0000 26 1288.9355 Impl Bds:27 88
0+ 0 nan nan 322.5251 -0.0000 nan 100.00%
0+ 0 nan nan 0.0935 -0.0000 nan 100.00%
0 0 -1.00000e+75 0 0.0935 -0.0000 88 100.00%
Repeating presolve.
Tried aggregator 1 time.
MIQP Presolve eliminated 70 rows and 53 columns.
Reduced MIQP has 60 rows, 55 columns, and
Reduced MIQP has 21 binaries, 0 generals, 0
Reduced MIQP objective Q matrix has 9 nonzeros.
Presolve time = 0.00 sec. (0.14 ticks)
Probing time = 0.00 sec. (0.02 ticks)
Tried aggregator 1 time.
Reduced MIQP has 60 rows, 55 columns, and
Reduced MIQP has 21 binaries, 0 generals, 0
Reduced MIQP objective Q matrix has 9 nonzeros.
Presolve time = 0.00 sec. (0.08 ticks)
Represolve time = 0.00 sec. (0.37 ticks)
Probing time = 0.00 sec. (0.02 ticks)
MIP emphasis:balance nan nan optimality and nan feasibility.
MIP search method:traditional branch-and-cut.
Parallel mode:none, nan nan using 1 nan thread.
Warning: Barrier optimality criterion affected by large objective
Root relaxation solution time = 0.01 sec. (1.03
0+ 0 nan nan 0.0935 -0.0000 nan 100.00%
0 0 -0.0000 7 0.0935 -0.0000 101 100.00%
0 0 -0.0000 6 0.0935 Impl Bds:2 105
0 2 -0.0000 6 0.0935 -0.0000 105 100.00%
CPXPARAM_MIP_Cuts_Implied 7
31
Node Left Objective IInf Best_Integer Best_Bound ItCnt Gap
0 0 -0.0000 25 -0.0000 13
0+ 0 nan nan 3415.1208 -0.0000 nan 100.00%
0+ 0 nan nan 1100.2016 -0.0000 nan 100.00%
0 0 -0.0000 24 1100.2016 Impl Bds:25 65
0+ 0 nan nan 339.7137 -0.0000 nan 100.00%
0+ 0 nan nan 242.0368 -0.0000 nan 100.00%
0+ 0 nan nan 142.4494 -0.0000 nan 100.00%
0 2 -0.0000 24 142.4494 -0.0000 65 100.00%
CPXPARAM_MIP_Cuts_Implied 20
32
Node Left Objective IInf Best_Integer Best_Bound ItCnt Gap
0 0 -0.0000 29 -0.0000 11
0+ 0 nan nan 2266.6548 -0.0000 nan 100.00%
0+ 0 nan nan 1030.0515 -0.0000 nan 100.00%
0 0 -0.0000 29 1030.0515 Impl Bds:27 74
0 0 -0.0000 29 1030.0515 Impl Bds:2 78
0+ 0 nan nan 582.0495 -0.0000 nan 100.00%
0 2 -0.0000 29 582.0495 -0.0000 78 100.00%
CPXPARAM_MIP_Cuts_Implied 29
33
Node Left Objective IInf Best_Integer Best_Bound ItCnt Gap
0 0 -0.0000 28 -0.0000 13
0+ 0 nan nan 3742.9462 -0.0000 nan 100.00%
0+ 0 nan nan 717.6282 -0.0000 nan 100.00%
0 0 -0.0000 28 717.6282 Impl Bds:27 68
0+ 0 nan nan 638.5871 -0.0000 nan 100.00%
0+ 0 nan nan 518.6048 -0.0000 nan 100.00%
0+ 0 nan nan 134.8752 -0.0000 nan 100.00%
0 2 -0.0000 28 134.8752 -0.0000 68 100.00%
CPXPARAM_MIP_Cuts_Implied 24
34
Node Left Objective IInf Best_Integer Best_Bound ItCnt Gap
0 0 -0.0000 29 -0.0000 12
0+ 0 nan nan 2714.7275 -0.0000 nan 100.00%
0+ 0 nan nan 1021.8941 -0.0000 nan 100.00%
0 0 -0.0000 29 1021.8941 Impl Bds:25 62
0+ 0 nan nan 965.6714 -0.0000 nan 100.00%
0+ 0 nan nan 774.6617 -0.0000 nan 100.00%
0 2 -0.0000 29 774.6617 -0.0000 62 100.00%
CPXPARAM_MIP_Cuts_Implied 25
35
Node Left Objective IInf Best_Integer Best_Bound ItCnt Gap
0 0 -0.0000 23 -0.0000 14
0+ 0 nan nan 3120.5902 -0.0000 nan 100.00%
0+ 0 nan nan 701.2883 -0.0000 nan 100.00%
0 0 -0.0000 22 701.2883 Impl Bds:23 62
0+ 0 nan nan 202.1919 -0.0000 nan 100.00%
0 2 -0.0000 22 202.1919 -0.0000 62 100.00%
CPXPARAM_MIP_Cuts_Implied 22
36
Node Left Objective IInf Best_Integer Best_Bound ItCnt Gap
0 0 -0.0000 30 -0.0000 11
0+ 0 nan nan 7135.2084 -0.0000 nan 100.00%
0+ 0 nan nan 1130.5701 -0.0000 nan 100.00%
0 0 -0.0000 29 1130.5701 Impl Bds:30 98
0+ 0 nan nan 968.7375 -0.0000 nan 100.00%
0 2 -0.0000 29 968.7375 -0.0000 98 100.00%
CPXPARAM_MIP_Cuts_Implied 28
37
Node Left Objective IInf Best_Integer Best_Bound ItCnt Gap
0 0 0.0000 27 0.0000 12
0+ 0 nan nan 3363.3122 0.0000 nan 100.00%
0+ 0 nan nan 593.1735 0.0000 nan 100.00%
0 0 0.0000 27 593.1735 Impl Bds:25 62
0+ 0 nan nan 214.6568 0.0000 nan 100.00%
0 2 0.0000 27 214.6568 0.0000 62 100.00%
CPXPARAM_MIP_Cuts_Implied 25
38
Node Left Objective IInf Best_Integer Best_Bound ItCnt Gap
0 0 -0.0000 26 -0.0000 13
0+ 0 nan nan 4038.1295 -0.0000 nan 100.00%
0+ 0 nan nan 888.4106 -0.0000 nan 100.00%
0 0 -0.0000 25 888.4106 Impl Bds:26 78
0+ 0 nan nan 258.0915 -0.0000 nan 100.00%
0+ 0 nan nan 115.8891 -0.0000 nan 100.00%
0+ 0 nan nan 0.5569 -0.0000 nan 100.00%
0 0 -1.00000e+75 0 0.5569 -0.0000 78 100.00%
0 2 -0.0000 22 0.5569 -0.0000 78 100.00%
CPXPARAM_MIP_Cuts_Implied 24
39
Node Left Objective IInf Best_Integer Best_Bound ItCnt Gap
0 0 0.0000 23 0.0000 13
0+ 0 nan nan 3818.6617 0.0000 nan 100.00%
0+ 0 nan nan 700.8378 0.0000 nan 100.00%
0 0 0.0000 22 700.8378 Impl Bds:23 61
0+ 0 nan nan 244.4862 0.0000 nan 100.00%
0 2 0.0000 22 244.4862 0.0000 61 100.00%
CPXPARAM_MIP_Cuts_Implied 22
